50 8
591 371
589 709
796 731
410 117
216 545
636 571
476 285
302 554
432 349
729 289
460 237
325 236
583 127
433 824
803 653
725 576
564 801
516 134
412 649
509 729
550 603
980 137
387 416
560 553
225 273
668 231
358 284
380 936
852 237
99 613
710 775
528 526
618 631
540 752
171 671
217 484
410 77
407 142
659 324
260 633
174 439
920 45
801 382
601 641
184 554
102 625
727 662
216 627
128 465
101 675
